c User generated cnf file
p cnf 15 73
14 1 -2 0 
15 10 -7 0 
10 -12 2 0 
6 11 -4 0 
3 -2 9 0 
5 -14 14 0 
7 4 -10 0 
7 -12 8 0 
6 -4 15 0 
6 2 -11 0 
13 15 -4 0 
15 -15 14 0 
8 -2 7 0 
4 10 -11 0 
1 4 -9 0 
1 -11 9 0 
12 15 -13 0 
10 8 -15 0 
12 -11 5 0 
10 -1 3 0 
11 4 -9 0 
15 -8 14 0 
6 -8 9 0 
11 11 -9 0 
8 -8 11 0 
3 -7 12 0 
9 -1 11 0 
14 -2 10 0 
4 -8 13 0 
12 6 -2 0 
5 -7 15 0 
4 -9 8 0 
14 -2 12 0 
13 -4 10 0 
8 14 -2 0 
6 -13 2 0 
14 -11 10 0 
13 -7 5 0 
2 14 -5 0 
10 5 -10 0 
10 -2 1 0 
14 14 -15 0 
1 13 -5 0 
5 2 -2 0 
2 14 -15 0 
1 -10 10 0 
9 1 -8 0 
4 -4 2 0 
1 -1 14 0 
10 14 -14 0 
11 2 -1 0 
1 6 -1 0 
13 12 -4 0 
1 12 -15 0 
10 -6 7 0 
3 -6 7 0 
7 1 -6 0 
7 12 -7 0 
13 -13 2 0 
12 -12 8 0 
8 -15 2 0 
4 -10 9 0 
13 -15 14 0 
6 9 -6 0 
12 -2 1 0 
9 15 -12 0 
13 15 -2 0 
8 12 -12 0 
2 -4 3 0 
11 -15 8 0 
13 -7 12 0 
10 -5 9 0 
3 -11 13 0 
